unknown
(model
; cardinality of BoundSet is 2
(declare-sort BoundSet 0)
; rep: @uc_BoundSet_0
; rep: @uc_BoundSet_1
; cardinality of UnboundSet is 1
(declare-sort UnboundSet 0)
(declare-fun groundTerm_3 () UnboundSet)
(define-fun IsRemarkablyWarm ((BOUND_VARIABLE_434 BoundSet)) Bool true)
(define-fun EndedLastYear ((BOUND_VARIABLE_434 BoundSet)) Bool true)
(define-fun IsWarm ((BOUND_VARIABLE_446 BoundSet) (BOUND_VARIABLE_447 BoundSet)) Bool false)
(define-fun IsSurprisedBy ((BOUND_VARIABLE_446 BoundSet) (BOUND_VARIABLE_447 BoundSet)) Bool false)
)
sat
(model
; cardinality of BoundSet is 1
(declare-sort BoundSet 0)
; rep: @uc_BoundSet_0
; cardinality of UnboundSet is 1
(declare-sort UnboundSet 0)
(declare-fun groundTerm_6 () UnboundSet)
(define-fun IsRemarkablyWarm ((BOUND_VARIABLE_478 BoundSet)) Bool true)
(define-fun EndedLastYear ((BOUND_VARIABLE_478 BoundSet)) Bool true)
(define-fun IsWarm ((BOUND_VARIABLE_485 BoundSet) (BOUND_VARIABLE_486 BoundSet)) Bool true)
(define-fun IsSurprisedBy ((BOUND_VARIABLE_485 BoundSet) (BOUND_VARIABLE_486 BoundSet)) Bool false)
)
